\ENCODING=ISO-8859-1
\Problem name: IloCplex

Maximize
 obj: 999.593939393939 v45 - 0.0787878787878788 v41 + 999.721212121212 v37
      - 0.224242424242424 v36 - 0.0787878787878788 v20 - 0.521212121212121 v11
      - 0.321212121212121 v24 - 0.248484848484848 v18 - v35 + 4 f4126
      + 999.690909090909 v26 + f3937 - 0.0787878787878788 v39 + 4 f3926
      + 1000 f3745 + f3615 + f3543 - 0.212121212121212 v43 + f3627 + f3519
      + f368 + 1000 f3510 - 0.103030303030303 v10 + f3649 + 1000 f3520
      + 1000 f3541 + 1000 f3539 + 1000 f3537 + 1000 f3518 + f3613 + f3531
      + 4 f2026 + f1838 + f4137 + f182 + 1000 f3746 + 999.642424242424 v46
      + f3632 + f3540 + f1142 + f180 + f366 + 2 f2231 + 999.769696969697 v22
      + f941 - 0.0848484848484849 v9 + f181 + f1812 + f920 + f367 + f937
      + 2 f2229 + f3616 + 1000 f3512 + f2037 + 2 f1130 + 6 f365 + f939
      + 2 f2225 + f3536 + 1000 f2422 + f3521 + 1000 f3514 + 1000 f3523
      - 0.109090909090909 v23 + f234 + 1000 f3517 + f233 + 2 f3533 + f2344
      + f1028 + 2 f3544 + f3528 + 1000 f2419 + f3534 + f2431 + 1000 f3511
      + f2415 + 1000 f3524 + 1000 f359
Subject To
 c1:   v49 <= 0
 c2:   v47 <= 0
 c3:   v45 <= 1
 c4:   v45 >= 1
 c5:   v44 <= 0
 c6:   v41 <= 1
 c7:   v41 >= 1
 c8:   v38 <= 0
 c9:   v37 <= 1
 c10:  v37 >= 1
 c11:  v36 <= 1
 c12:  v36 >= 1
 c13:  v15 <= 0
 c14:  v48 <= 0
 c15:  v21 <= 0
 c16:  v14 <= 0
 c17:  v7 <= 0
 c18:  v13 <= 0
 c19:  v31 <= 0
 c20:  v6 <= 0
 c21:  v0 <= 0
 c22:  v1 <= 0
 c23:  v20 <= 1
 c24:  v20 >= 1
 c25:  v3 <= 0
 c26:  v27 <= 0
 c27:  v25 <= 0
 c28:  v11 <= 1
 c29:  v11 >= 1
 c30:  v34 <= 0
 c31:  v28 <= 0
 c32:  v2 <= 0
 c33:  v24 <= 1
 c34:  v24 >= 1
 c35:  v4 <= 0
 c36:  v8 <= 0
 c37:  v5 <= 0
 c38:  v16 <= 0
 c39:  v19 <= 0
 c40:  v18 <= 1
 c41:  v18 >= 1
 c42:  v40 <= 0
 c43:  v12 <= 0
 c44:  v32 <= 0
 c45:  v29 <= 0
 c46:  v42 <= 0
 c47:  v30 <= 0
 c48:  v33 <= 0
 c49:  v17 <= 0
 c50:  v35 <= 0
 c51:  - v41 + f4126 + v26 <= 1
 c52:  v41 + f4126 - v26 <= 1
 c53:  v37 + f3937 - v39 <= 1
 c54:  - v37 + f3937 + v39 <= 1
 c55:  v26 - v39 + f3926 <= 1
 c56:  - v26 + v39 + f3926 <= 1
 c57:  v45 - v37 + f3745 <= 1
 c58:  - v45 + v37 + f3745 <= 1
 c59:  - v36 + v15 + f3615 <= 1
 c60:  v36 - v15 + f3615 <= 1
 c61:  - v35 + f3543 + v43 <= 1
 c62:  v35 + f3543 - v43 <= 1
 c63:  - v36 + v27 + f3627 <= 1
 c64:  v36 - v27 + f3627 <= 1
 c65:  v19 - v35 + f3519 <= 1
 c66:  - v19 + v35 + f3519 <= 1
 c67:  - v36 + v8 + f368 <= 1
 c68:  v36 - v8 + f368 <= 1
 c69:  - v35 + f3510 + v10 <= 1
 c70:  v35 + f3510 - v10 <= 1
 c71:  v49 - v36 + f3649 <= 1
 c72:  - v49 + v36 + f3649 <= 1
 c73:  v20 - v35 + f3520 <= 1
 c74:  - v20 + v35 + f3520 <= 1
 c75:  v41 - v35 + f3541 <= 1
 c76:  - v41 + v35 + f3541 <= 1
 c77:  - v35 + v39 + f3539 <= 1
 c78:  v35 - v39 + f3539 <= 1
 c79:  v37 - v35 + f3537 <= 1
 c80:  - v37 + v35 + f3537 <= 1
 c81:  v18 - v35 + f3518 <= 1
 c82:  - v18 + v35 + f3518 <= 1
 c83:  - v36 + v13 + f3613 <= 1
 c84:  v36 - v13 + f3613 <= 1
 c85:  v31 - v35 + f3531 <= 1
 c86:  - v31 + v35 + f3531 <= 1
 c87:  - v20 + v26 + f2026 <= 1
 c88:  v20 - v26 + f2026 <= 1
 c89:  v38 - v18 + f1838 <= 1
 c90:  - v38 + v18 + f1838 <= 1
 c91:  - v41 + v37 + f4137 <= 1
 c92:  v41 - v37 + f4137 <= 1
 c93:  v2 - v18 + f182 <= 1
 c94:  - v2 + v18 + f182 <= 1
 c95:  - v37 + f3746 + v46 <= 1
 c96:  v37 + f3746 - v46 <= 1
 c97:  - v36 + v32 + f3632 <= 1
 c98:  v36 - v32 + f3632 <= 1
 c99:  v40 - v35 + f3540 <= 1
 c100: - v40 + v35 + f3540 <= 1
 c101: - v11 + v42 + f1142 <= 1
 c102: v11 - v42 + f1142 <= 1
 c103: v0 - v18 + f180 <= 1
 c104: - v0 + v18 + f180 <= 1
 c105: - v36 + v6 + f366 <= 1
 c106: v36 - v6 + f366 <= 1
 c107: v31 + f2231 - v22 <= 1
 c108: - v31 + f2231 + v22 <= 1
 c109: v41 + f941 - v9 <= 1
 c110: - v41 + f941 + v9 <= 1
 c111: v1 - v18 + f181 <= 1
 c112: - v1 + v18 + f181 <= 1
 c113: - v18 + v12 + f1812 <= 1
 c114: v18 - v12 + f1812 <= 1
 c115: v20 - v9 + f920 <= 1
 c116: - v20 + v9 + f920 <= 1
 c117: - v36 + v7 + f367 <= 1
 c118: v36 - v7 + f367 <= 1
 c119: v37 - v9 + f937 <= 1
 c120: - v37 + v9 + f937 <= 1
 c121: v29 - v22 + f2229 <= 1
 c122: - v29 + v22 + f2229 <= 1
 c123: - v36 + v16 + f3616 <= 1
 c124: v36 - v16 + f3616 <= 1
 c125: v12 - v35 + f3512 <= 1
 c126: - v12 + v35 + f3512 <= 1
 c127: v37 - v20 + f2037 <= 1
 c128: - v37 + v20 + f2037 <= 1
 c129: - v11 + v30 + f1130 <= 1
 c130: v11 - v30 + f1130 <= 1
 c131: - v36 + v5 + f365 <= 1
 c132: v36 - v5 + f365 <= 1
 c133: v39 - v9 + f939 <= 1
 c134: - v39 + v9 + f939 <= 1
 c135: v25 - v22 + f2225 <= 1
 c136: - v25 + v22 + f2225 <= 1
 c137: v36 - v35 + f3536 <= 1
 c138: - v36 + v35 + f3536 <= 1
 c139: - v24 + v22 + f2422 <= 1
 c140: v24 - v22 + f2422 <= 1
 c141: v21 - v35 + f3521 <= 1
 c142: - v21 + v35 + f3521 <= 1
 c143: v14 - v35 + f3514 <= 1
 c144: - v14 + v35 + f3514 <= 1
 c145: - v35 + f3523 + v23 <= 1
 c146: v35 + f3523 - v23 <= 1
 c147: v4 - v23 + f234 <= 1
 c148: - v4 + v23 + f234 <= 1
 c149: v17 - v35 + f3517 <= 1
 c150: - v17 + v35 + f3517 <= 1
 c151: v3 - v23 + f233 <= 1
 c152: - v3 + v23 + f233 <= 1
 c153: v33 - v35 + f3533 <= 1
 c154: - v33 + v35 + f3533 <= 1
 c155: v44 - v23 + f2344 <= 1
 c156: - v44 + v23 + f2344 <= 1
 c157: v28 - v10 + f1028 <= 1
 c158: - v28 + v10 + f1028 <= 1
 c159: v44 - v35 + f3544 <= 1
 c160: - v44 + v35 + f3544 <= 1
 c161: v28 - v35 + f3528 <= 1
 c162: - v28 + v35 + f3528 <= 1
 c163: - v24 + v19 + f2419 <= 1
 c164: v24 - v19 + f2419 <= 1
 c165: v34 - v35 + f3534 <= 1
 c166: - v34 + v35 + f3534 <= 1
 c167: v31 - v24 + f2431 <= 1
 c168: - v31 + v24 + f2431 <= 1
 c169: v11 - v35 + f3511 <= 1
 c170: - v11 + v35 + f3511 <= 1
 c171: v15 - v24 + f2415 <= 1
 c172: - v15 + v24 + f2415 <= 1
 c173: v24 - v35 + f3524 <= 1
 c174: - v24 + v35 + f3524 <= 1
 c175: - v35 + v9 + f359 <= 1
 c176: v35 - v9 + f359 <= 1
Bounds
 0 <= v49 <= 1
 0 <= v47 <= 1
 0 <= v45 <= 1
 0 <= v44 <= 1
 0 <= v41 <= 1
 0 <= v38 <= 1
 0 <= v37 <= 1
 0 <= v36 <= 1
 0 <= v15 <= 1
 0 <= v48 <= 1
 0 <= v21 <= 1
 0 <= v14 <= 1
 0 <= v7 <= 1
 0 <= v13 <= 1
 0 <= v31 <= 1
 0 <= v6 <= 1
 0 <= v0 <= 1
 0 <= v1 <= 1
 0 <= v20 <= 1
 0 <= v3 <= 1
 0 <= v27 <= 1
 0 <= v25 <= 1
 0 <= v11 <= 1
 0 <= v34 <= 1
 0 <= v28 <= 1
 0 <= v2 <= 1
 0 <= v24 <= 1
 0 <= v4 <= 1
 0 <= v8 <= 1
 0 <= v5 <= 1
 0 <= v16 <= 1
 0 <= v19 <= 1
 0 <= v18 <= 1
 0 <= v40 <= 1
 0 <= v12 <= 1
 0 <= v32 <= 1
 0 <= v29 <= 1
 0 <= v42 <= 1
 0 <= v30 <= 1
 0 <= v33 <= 1
 0 <= v17 <= 1
 0 <= v35 <= 1
 0 <= f4126 <= 1
 0 <= v26 <= 1
 0 <= f3937 <= 1
 0 <= v39 <= 1
 0 <= f3926 <= 1
 0 <= f3745 <= 1
 0 <= f3615 <= 1
 0 <= f3543 <= 1
 0 <= v43 <= 1
 0 <= f3627 <= 1
 0 <= f3519 <= 1
 0 <= f368 <= 1
 0 <= f3510 <= 1
 0 <= v10 <= 1
 0 <= f3649 <= 1
 0 <= f3520 <= 1
 0 <= f3541 <= 1
 0 <= f3539 <= 1
 0 <= f3537 <= 1
 0 <= f3518 <= 1
 0 <= f3613 <= 1
 0 <= f3531 <= 1
 0 <= f2026 <= 1
 0 <= f1838 <= 1
 0 <= f4137 <= 1
 0 <= f182 <= 1
 0 <= f3746 <= 1
 0 <= v46 <= 1
 0 <= f3632 <= 1
 0 <= f3540 <= 1
 0 <= f1142 <= 1
 0 <= f180 <= 1
 0 <= f366 <= 1
 0 <= f2231 <= 1
 0 <= v22 <= 1
 0 <= f941 <= 1
 0 <= v9 <= 1
 0 <= f181 <= 1
 0 <= f1812 <= 1
 0 <= f920 <= 1
 0 <= f367 <= 1
 0 <= f937 <= 1
 0 <= f2229 <= 1
 0 <= f3616 <= 1
 0 <= f3512 <= 1
 0 <= f2037 <= 1
 0 <= f1130 <= 1
 0 <= f365 <= 1
 0 <= f939 <= 1
 0 <= f2225 <= 1
 0 <= f3536 <= 1
 0 <= f2422 <= 1
 0 <= f3521 <= 1
 0 <= f3514 <= 1
 0 <= f3523 <= 1
 0 <= v23 <= 1
 0 <= f234 <= 1
 0 <= f3517 <= 1
 0 <= f233 <= 1
 0 <= f3533 <= 1
 0 <= f2344 <= 1
 0 <= f1028 <= 1
 0 <= f3544 <= 1
 0 <= f3528 <= 1
 0 <= f2419 <= 1
 0 <= f3534 <= 1
 0 <= f2431 <= 1
 0 <= f3511 <= 1
 0 <= f2415 <= 1
 0 <= f3524 <= 1
 0 <= f359 <= 1
End
